"LFVO-1 (04-024-9277)"                  
   1.00000000000000     
    13.8750475247695082    0.0141508649863911   -0.1148814484601072
     0.0096482008066497    8.3759813798970431    0.0225783737735816
    -1.3554266690445447    0.0380405603693555   14.3394864117664866
   Fe   V    O    Li
    12    24    84    20
Direct
  0.5008902733478848  0.8066200986787138  0.3699768338789937
  0.4977188811499147  0.1939736263143885  0.8728658065932109
  0.9999668362783822  0.3059753227603750  0.3717022105856103
  0.0005761336803118  0.6952437429542329  0.8711011740299242
  0.8503333177004535  0.8127502169299063  0.5334113633515258
  0.8457715811527748  0.1911907738007059  0.0408126320384881
  0.3483133431662040  0.3201392110168371  0.5354032567987943
  0.3451886033936873  0.6872062564334911  0.0383784440632127
  0.7158687604989922  0.3166030902867760  0.7119698873515219
  0.7213611716101767  0.6818506359345591  0.2131409671943558
  0.2167137030434034  0.8136315932231213  0.7130869296572797
  0.2195304146037529  0.1818063858538821  0.2109864910428740
  0.4410269040595907  0.0388153509330280  0.1717365065031515
  0.4299037539470234  0.9688461411659617  0.6712160948533068
  0.9417390355185518  0.5403053932529005  0.1720377745294499
  0.9331108331121385  0.4619724416991247  0.6742372402752679
  0.6989407849066751  0.9584831495408821  0.3553222347112026
  0.6927251360614548  0.0415870873548556  0.8559065923412348
  0.2002044548419164  0.4573976657046543  0.3526974560831349
  0.1896187415672230  0.5348767127808003  0.8504699989228541
  0.5726033921442664  0.4589595585021513  0.5102078015159819
  0.5711618512196566  0.5383037323197755  0.0109855569988753
  0.0770832354944346  0.9602323782149540  0.5116658825181943
  0.0738899831467279  0.0373869969663048  0.0109391638230179
  0.6396598528573278  0.9516564114169128  0.5650527345886900
  0.6557771740819547  0.0335079669497844  0.0608326910025312
  0.1383375865373679  0.4520395816057530  0.5664888854982451
  0.1581123762778773  0.5340764719514297  0.0577674627769156
  0.2781433504350090  0.9664204760296400  0.4028928829264302
  0.2764465364866666  0.0358198646877597  0.9023298514816886
  0.7743857516086692  0.4599772595822245  0.3994457123181832
  0.7723920476940052  0.5369879617756794  0.9010622032567710
  0.4073528948346450  0.4637036362003855  0.2399423003926060
  0.4046952986307275  0.5413022559033749  0.7409368408493862
  0.9069394989938786  0.9634916850378090  0.2404854849884899
  0.9025063801966695  0.0419910912336761  0.7434664563905145
  0.4791789341993677  0.3226124402125023  0.4843435518613575
  0.4791001732735580  0.6770384299427761  0.9853967923882010
  0.9893046379714932  0.8212214996907221  0.4841803310121549
  0.9806364619981451  0.1783191774455162  0.9901943949839307
  0.3420061100951273  0.1560614420297668  0.1406669797533837
  0.3351714838051905  0.8470273748808026  0.6390155909523401
  0.8438377241123263  0.6611510987746740  0.1407866557292508
  0.8350538453147891  0.3469161241359018  0.6399763548167172
  0.2471755174161885  0.9723100717247775  0.2838030656358015
  0.2441884106437868  0.0358147880892972  0.7832527756400296
  0.7431793100002295  0.4639462896051043  0.2794844844142546
  0.7397974812675301  0.5381168648826602  0.7811313716809423
  0.3945757647657686  0.4924038314037062  0.1201813461334780
  0.3931829100067503  0.5088539988126399  0.6196621956491484
  0.8943846155028439  0.9927260335647858  0.1203067515150451
  0.8944811271007111  0.0153108004874341  0.6252129537041853
  0.4254354223653465  0.6529911937181225  0.2869446605529617
  0.4242745540680346  0.3484195186833858  0.7861283646556529
  0.9254708279590247  0.1529634189121936  0.2869609524317909
  0.9207232753065497  0.8482161587862791  0.7870134461435896
  0.3000548841635791  0.1535212360867391  0.4444491254680756
  0.2995467463837471  0.8481412956242593  0.9425503090580847
  0.7935633207347124  0.6457848236349335  0.4376856073749167
  0.7964106282139909  0.3485973878320152  0.9427759449986723
  0.5334782719679154  0.8917438888774001  0.6208902175930575
  0.5438085352833824  0.1098422167805708  0.1248066545693689
  0.0387775321109203  0.3806047367435212  0.6243303915871081
  0.0439421177681325  0.6088518818562108  0.1238220812197355
  0.6198683071821662  0.7950963606148136  0.3022360995368132
  0.6141153767128031  0.1995970644180929  0.7965653295264374
  0.1213449230420665  0.2946737250656284  0.3061446124264222
  0.1111899578680280  0.7116571307261239  0.7935360071100916
  0.5866297403299043  0.9703685437007579  0.4420644683174828
  0.5860700131047949  0.0275860114124171  0.9349311956936788
  0.0910239894261053  0.4715211173480895  0.4443344008248644
  0.0831701751458951  0.5308849285973096  0.9357941864089980
  0.6732852927387256  0.1340156425958341  0.3065620412938941
  0.6786821175848203  0.8649345335144147  0.8066271095842907
  0.1717014325502078  0.6332802980241681  0.3048057648634099
  0.1771376061444982  0.3565099498258704  0.7966376008449245
  0.6626651203899812  0.1338402355258452  0.6094635885878574
  0.6644906542646041  0.8478010978477002  0.1100753962443193
  0.1640844341711372  0.6336223978575291  0.6091789972735242
  0.1640439228854902  0.3481151217399656  0.1092250330306115
  0.6697821370712020  0.3826628864047876  0.4520628379814582
  0.6705513039833022  0.6159295930181656  0.9537734744196484
  0.1767705978376384  0.8839176398870876  0.4548299802197917
  0.1745074270060982  0.1147586192048422  0.9548705844598331
  0.2952895085999856  0.3838427295558162  0.2772400880176136
  0.2991222526301911  0.6245452726009972  0.7828954396945633
  0.7965538737120710  0.8839596796017730  0.2825632765204347
  0.7919741064232966  0.1245883040608149  0.7862423418731623
  0.5019926178922702  0.3432365681560157  0.2719298931493697
  0.5020362630573700  0.6564251977027737  0.7724981471005918
  0.0019385329260402  0.8432957903868115  0.2718287570567597
  0.9999174867486929  0.1565342081873808  0.7765724062947115
  0.4583930665080658  0.0027096689561006  0.2921546570075719
  0.4534286461469819  0.9914802463660806  0.7897255200920839
  0.9601374799717490  0.5038460202925350  0.2926221749700062
  0.9499568548955537  0.4870773633968781  0.7933368786662811
  0.5418256730997157  0.6450721962818591  0.4690543344402514
  0.5399737951075991  0.3538599250751844  0.9679112377015002
  0.0418629352652360  0.1452004942110747  0.4690202287999128
  0.0398198015052813  0.8549895651506816  0.9686526100773420
  0.4139663905173592  0.8478186705914652  0.1297345493448603
  0.4065254193124872  0.1610873964157591  0.6297944255836114
  0.9128999322326123  0.3482832794405866  0.1294920404048838
  0.9117552271837042  0.6526096841980191  0.6326685369867135
  0.7716268544990683  0.9910256267646318  0.4633209241773741
  0.7676506285231852  0.0186148681073846  0.9701855167451257
  0.2792625955170251  0.4860046905109101  0.4578998368937590
  0.2672886631158704  0.5181756804640898  0.9708517672957910
  0.6068057089668741  0.4555053422255568  0.6303512710276493
  0.6041859849526787  0.5356262871230868  0.1298496835727505
  0.1110613975423291  0.9573797559611066  0.6317611100764680
  0.1073018805497696  0.0280480675884007  0.1293984278230909
  0.3751752610439070  0.8396792572176111  0.4324876191162446
  0.3747958923793533  0.1604855739913731  0.9321483547345153
  0.8749138590780348  0.3390444972392714  0.4321332658496573
  0.8673467609472780  0.6652253234409997  0.9293578491459797
  0.7189476698214179  0.8051176559700366  0.6106212099851120
  0.7323090703913238  0.1993352301865770  0.1126681857699623
  0.2271682534773234  0.3119865145921921  0.6055007866712501
  0.2318783915324403  0.7049483406348500  0.1097797216144940
  0.6145679367270063  0.6683549666415445  0.7029521357109445
  0.6143487392230611  0.3067902863990639  0.1955020191416921
  0.1140351452666195  0.1698609039400409  0.7123308527064012
  0.1128457631554838  0.8021047049367169  0.1944114819132281
  0.3387301074143352  0.3171735762252581  0.0346793527824758
  0.3354157667153572  0.6829612866163757  0.5307129095416485
  0.8432062101702584  0.8169384154691244  0.0334553596135763
  0.8399447733833014  0.1787772871207238  0.5311022045779765
  0.5252955018579968  0.1783294505974595  0.3748934786304545
  0.5170653179502551  0.8201540649343428  0.8748713046646657
  0.0254649341373820  0.6788307125583231  0.3750407984647524
  0.0127316618344224  0.3217734081785864  0.8782472649088930
  0.3106963674882479  0.7857758041180389  0.2220452033279372
  0.0410769995372533  0.2494983438098046  0.1441462253740582
  0.8103623271707932  0.2848254565709496  0.2220155251995592
  0.5316083475226208  0.2671466770776476  0.6705331996941482
  0.0302919968426920  0.7762534624469026  0.6763657528188105
  0.8025409339011489  0.7328888227224937  0.7304481801452170
  0.5419557246211895  0.7481989414201138  0.1552158911278170
  0.2916816134874693  0.2486853210249294  0.7373443820709227
 
  0.00000000E+00  0.00000000E+00  0.00000000E+00
  0.00000000E+00  0.00000000E+00  0.00000000E+00
  0.00000000E+00  0.00000000E+00  0.00000000E+00
  0.00000000E+00  0.00000000E+00  0.00000000E+00
  0.00000000E+00  0.00000000E+00  0.00000000E+00
  0.00000000E+00  0.00000000E+00  0.00000000E+00
  0.00000000E+00  0.00000000E+00  0.00000000E+00
  0.00000000E+00  0.00000000E+00  0.00000000E+00
  0.00000000E+00  0.00000000E+00  0.00000000E+00
  0.00000000E+00  0.00000000E+00  0.00000000E+00
  0.00000000E+00  0.00000000E+00  0.00000000E+00
  0.00000000E+00  0.00000000E+00  0.00000000E+00
  0.00000000E+00  0.00000000E+00  0.00000000E+00
  0.00000000E+00  0.00000000E+00  0.00000000E+00
  0.00000000E+00  0.00000000E+00  0.00000000E+00
  0.00000000E+00  0.00000000E+00  0.00000000E+00
  0.00000000E+00  0.00000000E+00  0.00000000E+00
  0.00000000E+00  0.00000000E+00  0.00000000E+00
  0.00000000E+00  0.00000000E+00  0.00000000E+00
  0.00000000E+00  0.00000000E+00  0.00000000E+00
  0.00000000E+00  0.00000000E+00  0.00000000E+00
  0.00000000E+00  0.00000000E+00  0.00000000E+00
  0.00000000E+00  0.00000000E+00  0.00000000E+00
  0.00000000E+00  0.00000000E+00  0.00000000E+00
  0.00000000E+00  0.00000000E+00  0.00000000E+00
  0.00000000E+00  0.00000000E+00  0.00000000E+00
  0.00000000E+00  0.00000000E+00  0.00000000E+00
  0.00000000E+00  0.00000000E+00  0.00000000E+00
  0.00000000E+00  0.00000000E+00  0.00000000E+00
  0.00000000E+00  0.00000000E+00  0.00000000E+00
  0.00000000E+00  0.00000000E+00  0.00000000E+00
  0.00000000E+00  0.00000000E+00  0.00000000E+00
  0.00000000E+00  0.00000000E+00  0.00000000E+00
  0.00000000E+00  0.00000000E+00  0.00000000E+00
  0.00000000E+00  0.00000000E+00  0.00000000E+00
  0.00000000E+00  0.00000000E+00  0.00000000E+00
  0.00000000E+00  0.00000000E+00  0.00000000E+00
  0.00000000E+00  0.00000000E+00  0.00000000E+00
  0.00000000E+00  0.00000000E+00  0.00000000E+00
  0.00000000E+00  0.00000000E+00  0.00000000E+00
  0.00000000E+00  0.00000000E+00  0.00000000E+00
  0.00000000E+00  0.00000000E+00  0.00000000E+00
  0.00000000E+00  0.00000000E+00  0.00000000E+00
  0.00000000E+00  0.00000000E+00  0.00000000E+00
  0.00000000E+00  0.00000000E+00  0.00000000E+00
  0.00000000E+00  0.00000000E+00  0.00000000E+00
  0.00000000E+00  0.00000000E+00  0.00000000E+00
  0.00000000E+00  0.00000000E+00  0.00000000E+00
  0.00000000E+00  0.00000000E+00  0.00000000E+00
  0.00000000E+00  0.00000000E+00  0.00000000E+00
  0.00000000E+00  0.00000000E+00  0.00000000E+00
  0.00000000E+00  0.00000000E+00  0.00000000E+00
  0.00000000E+00  0.00000000E+00  0.00000000E+00
  0.00000000E+00  0.00000000E+00  0.00000000E+00
  0.00000000E+00  0.00000000E+00  0.00000000E+00
  0.00000000E+00  0.00000000E+00  0.00000000E+00
  0.00000000E+00  0.00000000E+00  0.00000000E+00
  0.00000000E+00  0.00000000E+00  0.00000000E+00
  0.00000000E+00  0.00000000E+00  0.00000000E+00
  0.00000000E+00  0.00000000E+00  0.00000000E+00
  0.00000000E+00  0.00000000E+00  0.00000000E+00
  0.00000000E+00  0.00000000E+00  0.00000000E+00
  0.00000000E+00  0.00000000E+00  0.00000000E+00
  0.00000000E+00  0.00000000E+00  0.00000000E+00
  0.00000000E+00  0.00000000E+00  0.00000000E+00
  0.00000000E+00  0.00000000E+00  0.00000000E+00
  0.00000000E+00  0.00000000E+00  0.00000000E+00
  0.00000000E+00  0.00000000E+00  0.00000000E+00
  0.00000000E+00  0.00000000E+00  0.00000000E+00
  0.00000000E+00  0.00000000E+00  0.00000000E+00
  0.00000000E+00  0.00000000E+00  0.00000000E+00
  0.00000000E+00  0.00000000E+00  0.00000000E+00
  0.00000000E+00  0.00000000E+00  0.00000000E+00
  0.00000000E+00  0.00000000E+00  0.00000000E+00
  0.00000000E+00  0.00000000E+00  0.00000000E+00
  0.00000000E+00  0.00000000E+00  0.00000000E+00
  0.00000000E+00  0.00000000E+00  0.00000000E+00
  0.00000000E+00  0.00000000E+00  0.00000000E+00
  0.00000000E+00  0.00000000E+00  0.00000000E+00
  0.00000000E+00  0.00000000E+00  0.00000000E+00
  0.00000000E+00  0.00000000E+00  0.00000000E+00
  0.00000000E+00  0.00000000E+00  0.00000000E+00
  0.00000000E+00  0.00000000E+00  0.00000000E+00
  0.00000000E+00  0.00000000E+00  0.00000000E+00
  0.00000000E+00  0.00000000E+00  0.00000000E+00
  0.00000000E+00  0.00000000E+00  0.00000000E+00
  0.00000000E+00  0.00000000E+00  0.00000000E+00
  0.00000000E+00  0.00000000E+00  0.00000000E+00
  0.00000000E+00  0.00000000E+00  0.00000000E+00
  0.00000000E+00  0.00000000E+00  0.00000000E+00
  0.00000000E+00  0.00000000E+00  0.00000000E+00
  0.00000000E+00  0.00000000E+00  0.00000000E+00
  0.00000000E+00  0.00000000E+00  0.00000000E+00
  0.00000000E+00  0.00000000E+00  0.00000000E+00
  0.00000000E+00  0.00000000E+00  0.00000000E+00
  0.00000000E+00  0.00000000E+00  0.00000000E+00
  0.00000000E+00  0.00000000E+00  0.00000000E+00
  0.00000000E+00  0.00000000E+00  0.00000000E+00
  0.00000000E+00  0.00000000E+00  0.00000000E+00
  0.00000000E+00  0.00000000E+00  0.00000000E+00
  0.00000000E+00  0.00000000E+00  0.00000000E+00
  0.00000000E+00  0.00000000E+00  0.00000000E+00
  0.00000000E+00  0.00000000E+00  0.00000000E+00
  0.00000000E+00  0.00000000E+00  0.00000000E+00
  0.00000000E+00  0.00000000E+00  0.00000000E+00
  0.00000000E+00  0.00000000E+00  0.00000000E+00
  0.00000000E+00  0.00000000E+00  0.00000000E+00
  0.00000000E+00  0.00000000E+00  0.00000000E+00
  0.00000000E+00  0.00000000E+00  0.00000000E+00
  0.00000000E+00  0.00000000E+00  0.00000000E+00
  0.00000000E+00  0.00000000E+00  0.00000000E+00
  0.00000000E+00  0.00000000E+00  0.00000000E+00
  0.00000000E+00  0.00000000E+00  0.00000000E+00
  0.00000000E+00  0.00000000E+00  0.00000000E+00
  0.00000000E+00  0.00000000E+00  0.00000000E+00
  0.00000000E+00  0.00000000E+00  0.00000000E+00
  0.00000000E+00  0.00000000E+00  0.00000000E+00
  0.00000000E+00  0.00000000E+00  0.00000000E+00
  0.00000000E+00  0.00000000E+00  0.00000000E+00
  0.00000000E+00  0.00000000E+00  0.00000000E+00
  0.00000000E+00  0.00000000E+00  0.00000000E+00
  0.00000000E+00  0.00000000E+00  0.00000000E+00
  0.00000000E+00  0.00000000E+00  0.00000000E+00
  0.00000000E+00  0.00000000E+00  0.00000000E+00
  0.00000000E+00  0.00000000E+00  0.00000000E+00
  0.00000000E+00  0.00000000E+00  0.00000000E+00
  0.00000000E+00  0.00000000E+00  0.00000000E+00
  0.00000000E+00  0.00000000E+00  0.00000000E+00
  0.00000000E+00  0.00000000E+00  0.00000000E+00
  0.00000000E+00  0.00000000E+00  0.00000000E+00
  0.00000000E+00  0.00000000E+00  0.00000000E+00
  0.00000000E+00  0.00000000E+00  0.00000000E+00
  0.00000000E+00  0.00000000E+00  0.00000000E+00
  0.00000000E+00  0.00000000E+00  0.00000000E+00
  0.00000000E+00  0.00000000E+00  0.00000000E+00
  0.00000000E+00  0.00000000E+00  0.00000000E+00
  0.00000000E+00  0.00000000E+00  0.00000000E+00
  0.00000000E+00  0.00000000E+00  0.00000000E+00
  0.00000000E+00  0.00000000E+00  0.00000000E+00
  0.00000000E+00  0.00000000E+00  0.00000000E+00
