# -- Default styles (for solo "SPCE" water) --
units        real
atom_style   full
pair_style   lj/charmm/coul/long 9.0 10.0
bond_style   harmonic
angle_style  harmonic
kspace_style pppm 0.0001
#pair_modify  mix arithmetic  # LEAVE THIS UNSPECIFIED!
