&CONTROL
  calculation = 'scf'
  outdir = './out/'
  prefix = 'LZPO'
  pseudo_dir = '/home/cgurwell/projects/rrg-ravh011/cgurwell/pseudo/'
  tprnfor = .true.
  tstress = .true.
  verbosity = 'high'
/
&SYSTEM
  ecutrho = 500
  ecutwfc = 80
  ibrav = 0
  nat = 72
  nosym = .false.
  ntyp = 4
  occupations = 'fixed'
/
&ELECTRONS
  electron_maxstep = 100
  mixing_beta =   0.4
/
ATOMIC_SPECIES
Li     6.941      Li.pbe-tm-gipaw-dc.UPF
O      15.9994    O.pbe-tm-new-gipaw-dc.UPF
P      30.973761  P.pbe-tm-new-gipaw-dc.UPF
Zr     91.224     Zr.pbe-tm-semi-gipaw-dc.UPF

ATOMIC_POSITIONS crystal
Li           0.2054000000       0.7229000000       0.1721000000
Li           0.7054000000       0.7771000000       0.6721000000
Li           0.7946000000       0.2771000000       0.8279000000
Li           0.2946000000       0.2229000000       0.3279000000
Zr           0.7458000000       0.9562000000       0.8901000000
Zr           0.2458000000       0.5438000000       0.3901000000
Zr           0.2542000000       0.0438000000       0.1099000000
Zr           0.7542000000       0.4562000000       0.6099000000
Zr           0.7509000000       0.5262000000       0.1203000000
Zr           0.2509000000       0.9738000000       0.6203000000
Zr           0.2491000000       0.4738000000       0.8797000000
Zr           0.7491000000       0.0262000000       0.3797000000
P            0.8870000000       0.6019000000       0.8548000000
P            0.3870000000       0.8981000000       0.3548000000
P            0.1130000000       0.3981000000       0.1452000000
P            0.6130000000       0.1019000000       0.6452000000
P            0.9024000000       0.8808000000       0.1461000000
P            0.4024000000       0.6192000000       0.6461000000
P            0.0976000000       0.1192000000       0.8539000000
P            0.5976000000       0.3808000000       0.3539000000
P            0.4649000000       0.7514000000       0.0099000000
P            0.9649000000       0.7486000000       0.5099000000
P            0.5351000000       0.2486000000       0.9901000000
P            0.0351000000       0.2514000000       0.4901000000
O            0.8495000000       0.9191000000       0.0334000000
O            0.3495000000       0.5809000000       0.5334000000
O            0.1505000000       0.0809000000       0.9666000000
O            0.6505000000       0.4191000000       0.4666000000
O            0.8211000000       0.7552000000       0.8204000000
O            0.3211000000       0.7448000000       0.3204000000
O            0.1789000000       0.2448000000       0.1796000000
O            0.6789000000       0.2552000000       0.6796000000
O            0.5521000000       0.8628000000       0.9419000000
O            0.0521000000       0.6372000000       0.4419000000
O            0.4479000000       0.1372000000       0.0581000000
O            0.9479000000       0.3628000000       0.5581000000
O            0.9271000000       0.0941000000       0.8425000000
O            0.4271000000       0.4059000000       0.3425000000
O            0.0729000000       0.9059000000       0.1575000000
O            0.5729000000       0.5941000000       0.6575000000
O            0.6681000000       0.9837000000       0.7279000000
O            0.1681000000       0.5163000000       0.2279000000
O            0.3319000000       0.0163000000       0.2721000000
O            0.8319000000       0.4837000000       0.7721000000
O            0.6565000000       0.1639000000       0.9224000000
O            0.1565000000       0.3361000000       0.4224000000
O            0.3435000000       0.8361000000       0.0776000000
O            0.8435000000       0.6639000000       0.5776000000
O            0.8233000000       0.5590000000       0.9628000000
O            0.3233000000       0.9410000000       0.4628000000
O            0.1767000000       0.4410000000       0.0372000000
O            0.6767000000       0.0590000000       0.5372000000
O            0.8741000000       0.7143000000       0.1682000000
O            0.3741000000       0.7857000000       0.6682000000
O            0.1259000000       0.2857000000       0.8318000000
O            0.6259000000       0.2143000000       0.3318000000
O            0.5714000000       0.6705000000       0.0889000000
O            0.0714000000       0.8295000000       0.5889000000
O            0.4286000000       0.3295000000       0.9111000000
O            0.9286000000       0.1705000000       0.4111000000
O            0.9412000000       0.3931000000       0.1438000000
O            0.4412000000       0.1069000000       0.6438000000
O            0.0588000000       0.6069000000       0.8562000000
O            0.5588000000       0.8931000000       0.3562000000
O            0.6813000000       0.4779000000       0.2741000000
O            0.1813000000       0.0221000000       0.7741000000
O            0.3187000000       0.5221000000       0.7259000000
O            0.8187000000       0.9779000000       0.2259000000
O            0.6193000000       0.3583000000       0.0647000000
O            0.1193000000       0.1417000000       0.5647000000
O            0.3807000000       0.6417000000       0.9353000000
O            0.8807000000       0.8583000000       0.4353000000

K_POINTS automatic
2 2 2 0 0 0

CELL_PARAMETERS angstrom
      8.8119088176       0.0000000000      -0.1231992809
      0.0000000000       8.9452000000       0.0000000000
      0.0000000000       0.0000000000      12.3750000000
