BEGIN
BEGIN_PATH_INPUT
&PATH
   restart_mode      = 'restart'
   string_method     = 'neb',
   nstep_path        = 40,
   ds                = 2.,
   opt_scheme        = "broyden",
   num_of_images     = 7,
   k_max             = 0.3,
   k_min             = 0.2,
   CI_scheme         = "auto",
   path_thr          = 0.05,
/
END_PATH_INPUT
BEGIN_ENGINE_INPUT
&CONTROL
   verbosity        = 'high'
   outdir           = './out'
   prefix           = 'LiAlO2_neb'
   pseudo_dir       = '/home/camgur/Documents/Coding/Goward/espresso/pseudo'
/
&SYSTEM
   ecutwfc          = 80
   ecutrho          = 600
   occupations      = 'smearing'
   degauss          = 0.015
   smearing         = 'cold'
   ntyp             = 3
   nat              = 15
   ibrav            = 0
/
&ELECTRONS
   conv_thr         = 1.0D-8
   mixing_beta      = 0.4
/
&IONS
/
ATOMIC_SPECIES
Li 6.94 Li.pbe-tm-gipaw-dc.UPF
Al 26.9815385 Al.pbe-tm-gipaw-dc.UPF
O 15.999 O.pbe-tm-new-gipaw-dc.UPF

BEGIN_POSITIONS
FIRST_IMAGE

ATOMIC_POSITIONS angstrom
Li       1.606446 3.547654 4.685996
Li       3.547654 1.606446 1.570504
Li       4.203367 4.203367 0.0
Al       3.503447 1.688667 4.697939
Al       1.688667 3.503447 1.558561
Al       4.277236 4.277236 3.12825
Al       0.882905 0.882905 0.0
O        4.311932 1.068327 6.127145
O        0.833118 3.984064 3.002685
O        3.687481 3.441352 4.5647
O        1.568716 1.759206 1.345329
O        3.984064 0.833118 3.253815
O        1.068327 4.311932 0.129355
O        3.441352 3.687481 1.6918
O        1.759206 1.568716 4.911171

INTERMEDIATE_IMAGE

ATOMIC_POSITIONS angstrom
Li       1.608556 3.547944 4.687059
Li       3.116948 1.501673 1.829059
Li       4.201255 4.203652 0.001069
Al       3.497396 1.690783 4.697012
Al       1.689388 3.498791 1.559488
Al       4.276517 4.27258 3.129178
Al       0.888954 0.885017 -0.000928
O        4.317183 1.059527 6.11224
O        0.837116 3.997598 3.002332
O        3.681665 3.441266 4.564423
O        1.540568 1.75786 1.360863
O        4.012215 0.831776 3.269352
O        1.074144 4.311843 0.129075
O        3.437355 3.701013 1.691452
O        1.75395 1.559916 4.896262

INTERMEDIATE_IMAGE

ATOMIC_POSITIONS angstrom
Li       1.610666 3.548233 4.688122
Li       2.686243 1.396899 2.087615
Li       4.199142 4.203937 0.002138
Al       3.491345 1.692898 4.696085
Al       1.690109 3.494134 1.560415
Al       4.275798 4.267924 3.130105
Al       0.895003 0.887129 -0.001855
O        4.322434 1.050727 6.097336
O        0.841113 4.011133 3.00198
O        3.675849 3.441179 4.564145
O        1.51242 1.756515 1.376398
O        4.040367 0.830433 3.284888
O        1.079961 4.311754 0.128796
O        3.433357 3.714544 1.691105
O        1.748693 1.551116 4.881352

INTERMEDIATE_IMAGE

ATOMIC_POSITIONS angstrom
Li       1.612777 3.548523 4.689185
Li       2.255538 1.292126 2.34617
Li       4.19703 4.204222 0.003208
Al       3.485294 1.695013 4.695157
Al       1.69083 3.489477 1.561343
Al       4.275079 4.263268 3.131033
Al       0.901052 0.889241 -0.002783
O        4.327685 1.041927 6.082431
O        0.84511 4.024667 3.001628
O        3.670033 3.441092 4.563868
O        1.484273 1.755169 1.391932
O        4.068518 0.82909 3.300425
O        1.085778 4.311665 0.128517
O        3.42936 3.728076 1.690758
O        1.743437 1.542316 4.866443

INTERMEDIATE_IMAGE

ATOMIC_POSITIONS angstrom
Li       1.614887 3.548813 4.690249
Li       1.824833 1.187353 2.604725
Li       4.194918 4.204508 0.004277
Al       3.479243 1.697129 4.69423
Al       1.691551 3.484821 1.56227
Al       4.27436 4.258613 3.131961
Al       0.907101 0.891354 -0.003711
O        4.332936 1.033127 6.067526
O        0.849107 4.038202 3.001276
O        3.664216 3.441006 4.56359
O        1.456125 1.753824 1.407466
O        4.09667 0.827748 3.315961
O        1.091595 4.311576 0.128237
O        3.425362 3.741607 1.69041
O        1.73818 1.533516 4.851534

INTERMEDIATE_IMAGE

ATOMIC_POSITIONS angstrom
Li       1.616997 3.549103 4.691312
Li       1.394127 1.082579 2.86328
Li       4.192806 4.204793 0.005346
Al       3.473192 1.699244 4.693302
Al       1.692272 3.480164 1.563198
Al       4.273641 4.253957 3.132889
Al       0.91315 0.893466 -0.004639
O        4.338187 1.024327 6.052621
O        0.853104 4.051736 3.000923
O        3.6584 3.440919 4.563312
O        1.427977 1.752478 1.423
O        4.124821 0.826405 3.331497
O        1.097413 4.311487 0.127958
O        3.421365 3.755139 1.690063
O        1.732924 1.524716 4.836625

LAST_IMAGE

ATOMIC_POSITIONS angstrom
Li       1.619107 3.549393 4.692375
Li       0.963422 0.977806 3.121835
Li       4.190694 4.205078 0.006415
Al       3.467141 1.701359 4.692375
Al       1.692993 3.475507 1.564125
Al       4.272922 4.249301 3.133816
Al       0.919199 0.895578 -0.005566
O        4.343438 1.015527 6.037716
O        0.857102 4.06527 3.000571
O        3.652584 3.440833 4.563035
O        1.39983 1.751133 1.438535
O        4.152973 0.825062 3.347034
O        1.10323 4.311398 0.127679
O        3.417367 3.76867 1.689715
O        1.727667 1.515916 4.821715

END_POSITIONS

K_POINTS automatic
7 7 6  0 0 0

CELL_PARAMETERS angstrom
5.16850000000000 0.00000000000000 0.00000000000000
0.00000000000000 5.16850000000000 0.00000000000000
0.00000000000000 0.00000000000000 6.25650000000000

END_ENGINE_INPUT
END
