&CONTROL
   verbosity        = 'high'
   outdir           = './out'
   prefix           = 'LiAlO2_neb'
   pseudo_dir       = '/home/camgur/Documents/Coding/Goward/espresso/pseudo'
/
&SYSTEM
   ecutwfc          = 80
   ecutrho          = 600
   occupations      = 'smearing'
   degauss          = 0.015
   smearing         = 'cold'
   ntyp             = 3
   nat              = 15
   ibrav            = 0
/
&ELECTRONS
   conv_thr         = 1.0D-8
   mixing_beta      = 0.4
/
&IONS
/
ATOMIC_SPECIES
Li 6.94 Li.pbe-tm-gipaw-dc.UPF
Al 26.9815385 Al.pbe-tm-gipaw-dc.UPF
O 15.999 O.pbe-tm-new-gipaw-dc.UPF
ATOMIC_POSITIONS angstrom
Li       1.612777 3.548523 4.689185
Li       2.255538 1.292126 2.34617
Li       4.19703 4.204222 0.003208
Al       3.485294 1.695013 4.695157
Al       1.69083 3.489477 1.561343
Al       4.275079 4.263268 3.131033
Al       0.901052 0.889241 -0.002783
O        4.327685 1.041927 6.082431
O        0.84511 4.024667 3.001628
O        3.670033 3.441092 4.563868
O        1.484273 1.755169 1.391932
O        4.068518 0.82909 3.300425
O        1.085778 4.311665 0.128517
O        3.42936 3.728076 1.690758
O        1.743437 1.542316 4.866443
K_POINTS automatic
7 7 6  0 0 0
CELL_PARAMETERS angstrom
5.16850000000000 0.00000000000000 0.00000000000000
0.00000000000000 5.16850000000000 0.00000000000000
0.00000000000000 0.00000000000000 6.25650000000000
