&CONTROL
  calculation = 'relax'
  outdir = './out/'
  prefix = 'LAC'
  pseudo_dir = '/home/cgurwell/projects/rrg-ravh011/cgurwell/pseudo/'
  tprnfor = .true.
  tstress = .true.
  verbosity = 'high'
/
&SYSTEM
  ecutrho = 600
  ecutwfc = 100
  ibrav = 0
  nat = 24
  nosym = .false.
  ntyp = 3
  occupations = 'fixed'
/
&ELECTRONS
  electron_maxstep = 100
  mixing_beta =   0.4
/
&IONS
/
ATOMIC_SPECIES
Li     6.941      Li.pbe-tm-gipaw-dc.UPF
Al     26.981538  Al.pbe-tm-gipaw-dc.UPF
Cl     35.453     Cl.pbe-tm-gipaw.UPF

ATOMIC_POSITIONS crystal
Li           0.4850000000       0.8423000000       0.1354000000
Li           0.9850000000       0.1577000000       0.3646000000
Li           0.5150000000       0.1577000000       0.8646000000
Li           0.0150000000       0.8423000000       0.6354000000
Al           0.8217000000       0.2941000000       0.6009700000
Al           0.3217000000       0.7059000000       0.8990300000
Al           0.1783000000       0.7059000000       0.3990300000
Al           0.6783000000       0.2941000000       0.1009700000
Cl           0.6832000000       0.3062000000       0.4533300000
Cl           0.1832000000       0.6938000000       0.0466700000
Cl           0.3168000000       0.6938000000       0.5466700000
Cl           0.8168000000       0.3062000000       0.9533300000
Cl           0.1281000000       0.1914000000       0.5714100000
Cl           0.6281000000       0.8086000000       0.9285900000
Cl           0.8719000000       0.8086000000       0.4285900000
Cl           0.3719000000       0.1914000000       0.0714100000
Cl           0.6812000000       0.0745000000       0.6861400000
Cl           0.1812000000       0.9255000000       0.8138600000
Cl           0.3188000000       0.9255000000       0.3138600000
Cl           0.8188000000       0.0745000000       0.1861400000
Cl           0.8140000000       0.5603000000       0.6870500000
Cl           0.3140000000       0.4397000000       0.8129500000
Cl           0.1860000000       0.4397000000       0.3129500000
Cl           0.6860000000       0.5603000000       0.1870500000

K_POINTS automatic
5 5 5 0 0 0

CELL_PARAMETERS angstrom
     -0.0000000000      -6.5030000000      -0.0000000000
     -6.9923860836       0.0000000000       0.4031784448
      0.0000000000       0.0000000000     -12.9960000000
