                                        
   1.00000000000000     
    13.6535688974056946    0.0000000000000000    0.0693008534125630
     0.0000000000000000    8.3028636296373524    0.0000000000000000
    -1.5902488766706115    0.0000000000000000   14.3842432372179072
   Fe   V    O    Li
    12    24    84    12
Direct
  0.4969733663792807  0.7996498065268143  0.3710768325653254
  0.4969733663792807  0.2003501934731860  0.8710768625653278
  0.9969733953792792  0.2996498065268142  0.3710768325653254
  0.9969733953792792  0.7003501934731857  0.8710768625653278
  0.8499382203057910  0.8247843569843759  0.5409314694848975
  0.8499382203057910  0.1752156430156241  0.0409314694848971
  0.3499382203057907  0.3247843569843760  0.5409314694848975
  0.3499382203057907  0.6752156430156241  0.0409314694848971
  0.6986029756144575  0.3081640266340296  0.7082178363770623
  0.6986029756144575  0.6918359733659700  0.2082178363770625
  0.1986029756144575  0.8081640266340300  0.7082178363770623
  0.1986029756144575  0.1918359733659702  0.2082178363770625
  0.4222846108003087  0.0232861138181547  0.1764884164142984
  0.4222846108003087  0.9767138861818451  0.6764883864142961
  0.9222846108003087  0.5232861138181549  0.1764884164142984
  0.9222846108003087  0.4767138861818455  0.6764883864142961
  0.7054756635477966  0.9636471260292363  0.3553683209825048
  0.7054756635477966  0.0363528739707635  0.8553682909825026
  0.2054756635477963  0.4636471260292365  0.3553683209825048
  0.2054756635477963  0.5363528739707637  0.8553682909825026
  0.5729857989512424  0.4602225868980737  0.5158558029573747
  0.5729857989512424  0.5397774431019219  0.0158558029573745
  0.0729857989512417  0.9602225568980781  0.5158558029573747
  0.0729857989512417  0.0397774131019262  0.0158558029573745
  0.6273457759728668  0.9591423993313184  0.5665619616940016
  0.6273457759728668  0.0408576006686818  0.0665619616940015
  0.1273457759728668  0.4591423993313182  0.5665619616940016
  0.1273457759728668  0.5408576006686816  0.0665619616940015
  0.2746482360027162  0.9748304258137384  0.4038171179209449
  0.2746482360027162  0.0251695741862618  0.9038171179209447
  0.7746482060027139  0.4748304258137382  0.4038171179209449
  0.7746482060027139  0.5251695741862616  0.9038171179209447
  0.4081289414386357  0.4613427635359262  0.2397365077967230
  0.4081289414386357  0.5386572064640788  0.7397365077967226
  0.9081289414386354  0.9613427935359212  0.2397365077967229
  0.9081289414386354  0.0386572364640738  0.7397365077967226
  0.4794807035288255  0.3242460445917587  0.4856619536650143
  0.4794807035288255  0.6757539554082417  0.9856619536650143
  0.9794807335288207  0.8242460445917583  0.4856619536650143
  0.9794807335288207  0.1757539554082415  0.9856619536650143
  0.3239075071645214  0.1517435905884691  0.1480071147362085
  0.3239075071645214  0.8482564094115307  0.6480071447362109
  0.8239075371645166  0.6517435905884693  0.1480071147362085
  0.8239075371645166  0.3482564094115309  0.6480071447362109
  0.2355296158032446  0.9971151390616289  0.2872061192878911
  0.2355296158032446  0.0028848609383712  0.7872061192878913
  0.7355296308032492  0.4971151390616289  0.2872061192878911
  0.7355296308032492  0.5028848609383711  0.7872061192878913
  0.3939887303149862  0.4877814372524478  0.1195304726347319
  0.3939887303149862  0.5122185327475569  0.6195304806347328
  0.8939887003149833  0.9877814672524431  0.1195304726347319
  0.8939887003149833  0.0122185627475521  0.6195304806347328
  0.4327676069734134  0.6432117829697261  0.2917192759405724
  0.4327676069734134  0.3567882170302735  0.7917193059405746
  0.9327676069734131  0.1432117829697263  0.2917192759405724
  0.9327676069734131  0.8567882170302739  0.7917193059405746
  0.3005953684922355  0.1591852327638110  0.4484206396087453
  0.3005953684922355  0.8408147672361893  0.9484206096087431
  0.8005953684922359  0.6591852327638107  0.4484206396087453
  0.8005953684922359  0.3408147672361891  0.9484206096087431
  0.5251627761511612  0.8965074046347258  0.6227564703936354
  0.5251627761511612  0.1034925953652743  0.1227564703936354
  0.0251627761511611  0.3965074046347257  0.6227564703936354
  0.0251627761511611  0.6034925953652742  0.1227564703936354
  0.6262301710001675  0.7937111159948875  0.3065537241918099
  0.6262301710001675  0.2062888840051124  0.8065537241918099
  0.1262301710001672  0.2937111159948878  0.3065537241918099
  0.1262301710001672  0.7062888840051125  0.8065537241918099
  0.5916571941267028  0.9698479878409202  0.4436939255687049
  0.5916571941267028  0.0301520121590799  0.9436939255687051
  0.0916571941267027  0.4698479878409202  0.4436939255687049
  0.0916571941267027  0.5301520121590798  0.9436939255687051
  0.6724944678965308  0.1381935100893090  0.3068467725099296
  0.6724944678965308  0.8618064899106835  0.8068468025099321
  0.1724944678965306  0.6381935100893165  0.3068467725099296
  0.1724944678965306  0.3618064899106909  0.8068468025099321
  0.6648648991284130  0.1421375900574613  0.6093445791824836
  0.6648648991284130  0.8578624099425387  0.1093445791824835
  0.1648648991284128  0.6421375900574613  0.6093445791824836
  0.1648648991284128  0.3578624099425388  0.1093445791824835
  0.6738029722646770  0.3906867590637710  0.4578996996926695
  0.6738029722646770  0.6093132709362314  0.9578996996926695
  0.1738029722646770  0.8906867290637686  0.4578996996926695
  0.1738029722646770  0.1093132409362289  0.9578996996926695
  0.2960452064770704  0.3800596444509720  0.2786987263118677
  0.2960452064770704  0.6199403555490279  0.7786987263118677
  0.7960452364770725  0.8800596444509721  0.2786987263118677
  0.7960452364770725  0.1199403555490279  0.7786987263118677
  0.5036260716784948  0.3384308365407084  0.2710357613106965
  0.5036260716784948  0.6615691334592885  0.7710357613106968
  0.0036260716784948  0.8384308665407115  0.2710357613106965
  0.0036260716784948  0.1615691634592914  0.7710357613106968
  0.4548018119204725 -0.0010464733309143  0.2937635431415259
  0.4548018119204725  0.0010464733309142  0.7937635131415234
  0.9548017819204702  0.4989535266690860  0.2937635431415259
  0.9548017819204702  0.5010464733309145  0.7937635131415234
  0.5393542900970747  0.6456426397816403  0.4738334452690009
  0.5393542900970747  0.3543573602183597  0.9738334752690037
  0.0393542900970748  0.1456426397816401  0.4738334452690009
  0.0393542900970748  0.8543573602183597  0.9738334752690037
  0.3964548363752823  0.8408663353817066  0.1294547415276592
  0.3964548363752823  0.1591336646182933  0.6294547265276617
  0.8964548063752797  0.3408663353817065  0.1294547415276592
  0.8964548063752797  0.6591336646182934  0.6294547265276617
  0.7865711710322055 -0.0030066287616284  0.4549432338580628
  0.7865711710322055  0.0030066287616284  0.9549432338580630
  0.2865711710322055  0.4969933712383713  0.4549432338580628
  0.2865711710322055  0.5030066287616283  0.9549432338580630
  0.6130076820328669  0.4632701845780576  0.6343044819137565
  0.6130076820328669  0.5367297854219399  0.1343044819137564
  0.1130076820328668  0.9632702145780601  0.6343044819137565
  0.1130076820328668  0.0367298154219425  0.1343044819137564
  0.3736076531173384  0.8467982765792306  0.4323817208536800
  0.3736076531173384  0.1532017234207695  0.9323816908536848
  0.8736076531173381  0.3467982765792306  0.4323817208536800
  0.8736076531173381  0.6532017234207694  0.9323816908536848
  0.7165136712335900  0.8202005731296608  0.5957151598960110
  0.7165136712335900  0.1797994268703391  0.0957151598960110
  0.2165136712335899  0.3202005731296610  0.5957151598960110
  0.2165136712335899  0.6797994268703392  0.0957151598960110
  0.6369868161986079  0.6683248443662020  0.7207553169811168
  0.6369868161986079  0.3316751556337980  0.2207553169811170
  0.1369868161986079  0.1683248443662019  0.7207553169811168
  0.1369868161986079  0.8316751556337980  0.2207553169811170
  0.3367549359414820  0.3099337502813160  0.0340921824185703
  0.3367549359414820  0.6900662497186838  0.5340921714185659
  0.8367549359414818  0.8099337502813162  0.0340921824185703
  0.8367549359414818  0.1900662497186838  0.5340921714185659
  0.5248402000375691  0.1783505018474736  0.3720466999125199
  0.5248402000375691  0.8216494981525265  0.8720466709125210
  0.0248402000375696  0.6783505018474735  0.3720466999125199
  0.0248402000375696  0.3216494981525262  0.8720466709125210
 
  0.00000000E+00  0.00000000E+00  0.00000000E+00
  0.00000000E+00  0.00000000E+00  0.00000000E+00
  0.00000000E+00  0.00000000E+00  0.00000000E+00
  0.00000000E+00  0.00000000E+00  0.00000000E+00
  0.00000000E+00  0.00000000E+00  0.00000000E+00
  0.00000000E+00  0.00000000E+00  0.00000000E+00
  0.00000000E+00  0.00000000E+00  0.00000000E+00
  0.00000000E+00  0.00000000E+00  0.00000000E+00
  0.00000000E+00  0.00000000E+00  0.00000000E+00
  0.00000000E+00  0.00000000E+00  0.00000000E+00
  0.00000000E+00  0.00000000E+00  0.00000000E+00
  0.00000000E+00  0.00000000E+00  0.00000000E+00
  0.00000000E+00  0.00000000E+00  0.00000000E+00
  0.00000000E+00  0.00000000E+00  0.00000000E+00
  0.00000000E+00  0.00000000E+00  0.00000000E+00
  0.00000000E+00  0.00000000E+00  0.00000000E+00
  0.00000000E+00  0.00000000E+00  0.00000000E+00
  0.00000000E+00  0.00000000E+00  0.00000000E+00
  0.00000000E+00  0.00000000E+00  0.00000000E+00
  0.00000000E+00  0.00000000E+00  0.00000000E+00
  0.00000000E+00  0.00000000E+00  0.00000000E+00
  0.00000000E+00  0.00000000E+00  0.00000000E+00
  0.00000000E+00  0.00000000E+00  0.00000000E+00
  0.00000000E+00  0.00000000E+00  0.00000000E+00
  0.00000000E+00  0.00000000E+00  0.00000000E+00
  0.00000000E+00  0.00000000E+00  0.00000000E+00
  0.00000000E+00  0.00000000E+00  0.00000000E+00
  0.00000000E+00  0.00000000E+00  0.00000000E+00
  0.00000000E+00  0.00000000E+00  0.00000000E+00
  0.00000000E+00  0.00000000E+00  0.00000000E+00
  0.00000000E+00  0.00000000E+00  0.00000000E+00
  0.00000000E+00  0.00000000E+00  0.00000000E+00
  0.00000000E+00  0.00000000E+00  0.00000000E+00
  0.00000000E+00  0.00000000E+00  0.00000000E+00
  0.00000000E+00  0.00000000E+00  0.00000000E+00
  0.00000000E+00  0.00000000E+00  0.00000000E+00
  0.00000000E+00  0.00000000E+00  0.00000000E+00
  0.00000000E+00  0.00000000E+00  0.00000000E+00
  0.00000000E+00  0.00000000E+00  0.00000000E+00
  0.00000000E+00  0.00000000E+00  0.00000000E+00
  0.00000000E+00  0.00000000E+00  0.00000000E+00
  0.00000000E+00  0.00000000E+00  0.00000000E+00
  0.00000000E+00  0.00000000E+00  0.00000000E+00
  0.00000000E+00  0.00000000E+00  0.00000000E+00
  0.00000000E+00  0.00000000E+00  0.00000000E+00
  0.00000000E+00  0.00000000E+00  0.00000000E+00
  0.00000000E+00  0.00000000E+00  0.00000000E+00
  0.00000000E+00  0.00000000E+00  0.00000000E+00
  0.00000000E+00  0.00000000E+00  0.00000000E+00
  0.00000000E+00  0.00000000E+00  0.00000000E+00
  0.00000000E+00  0.00000000E+00  0.00000000E+00
  0.00000000E+00  0.00000000E+00  0.00000000E+00
  0.00000000E+00  0.00000000E+00  0.00000000E+00
  0.00000000E+00  0.00000000E+00  0.00000000E+00
  0.00000000E+00  0.00000000E+00  0.00000000E+00
  0.00000000E+00  0.00000000E+00  0.00000000E+00
  0.00000000E+00  0.00000000E+00  0.00000000E+00
  0.00000000E+00  0.00000000E+00  0.00000000E+00
  0.00000000E+00  0.00000000E+00  0.00000000E+00
  0.00000000E+00  0.00000000E+00  0.00000000E+00
  0.00000000E+00  0.00000000E+00  0.00000000E+00
  0.00000000E+00  0.00000000E+00  0.00000000E+00
  0.00000000E+00  0.00000000E+00  0.00000000E+00
  0.00000000E+00  0.00000000E+00  0.00000000E+00
  0.00000000E+00  0.00000000E+00  0.00000000E+00
  0.00000000E+00  0.00000000E+00  0.00000000E+00
  0.00000000E+00  0.00000000E+00  0.00000000E+00
  0.00000000E+00  0.00000000E+00  0.00000000E+00
  0.00000000E+00  0.00000000E+00  0.00000000E+00
  0.00000000E+00  0.00000000E+00  0.00000000E+00
  0.00000000E+00  0.00000000E+00  0.00000000E+00
  0.00000000E+00  0.00000000E+00  0.00000000E+00
  0.00000000E+00  0.00000000E+00  0.00000000E+00
  0.00000000E+00  0.00000000E+00  0.00000000E+00
  0.00000000E+00  0.00000000E+00  0.00000000E+00
  0.00000000E+00  0.00000000E+00  0.00000000E+00
  0.00000000E+00  0.00000000E+00  0.00000000E+00
  0.00000000E+00  0.00000000E+00  0.00000000E+00
  0.00000000E+00  0.00000000E+00  0.00000000E+00
  0.00000000E+00  0.00000000E+00  0.00000000E+00
  0.00000000E+00  0.00000000E+00  0.00000000E+00
  0.00000000E+00  0.00000000E+00  0.00000000E+00
  0.00000000E+00  0.00000000E+00  0.00000000E+00
  0.00000000E+00  0.00000000E+00  0.00000000E+00
  0.00000000E+00  0.00000000E+00  0.00000000E+00
  0.00000000E+00  0.00000000E+00  0.00000000E+00
  0.00000000E+00  0.00000000E+00  0.00000000E+00
  0.00000000E+00  0.00000000E+00  0.00000000E+00
  0.00000000E+00  0.00000000E+00  0.00000000E+00
  0.00000000E+00  0.00000000E+00  0.00000000E+00
  0.00000000E+00  0.00000000E+00  0.00000000E+00
  0.00000000E+00  0.00000000E+00  0.00000000E+00
  0.00000000E+00  0.00000000E+00  0.00000000E+00
  0.00000000E+00  0.00000000E+00  0.00000000E+00
  0.00000000E+00  0.00000000E+00  0.00000000E+00
  0.00000000E+00  0.00000000E+00  0.00000000E+00
  0.00000000E+00  0.00000000E+00  0.00000000E+00
  0.00000000E+00  0.00000000E+00  0.00000000E+00
  0.00000000E+00  0.00000000E+00  0.00000000E+00
  0.00000000E+00  0.00000000E+00  0.00000000E+00
  0.00000000E+00  0.00000000E+00  0.00000000E+00
  0.00000000E+00  0.00000000E+00  0.00000000E+00
  0.00000000E+00  0.00000000E+00  0.00000000E+00
  0.00000000E+00  0.00000000E+00  0.00000000E+00
  0.00000000E+00  0.00000000E+00  0.00000000E+00
  0.00000000E+00  0.00000000E+00  0.00000000E+00
  0.00000000E+00  0.00000000E+00  0.00000000E+00
  0.00000000E+00  0.00000000E+00  0.00000000E+00
  0.00000000E+00  0.00000000E+00  0.00000000E+00
  0.00000000E+00  0.00000000E+00  0.00000000E+00
  0.00000000E+00  0.00000000E+00  0.00000000E+00
  0.00000000E+00  0.00000000E+00  0.00000000E+00
  0.00000000E+00  0.00000000E+00  0.00000000E+00
  0.00000000E+00  0.00000000E+00  0.00000000E+00
  0.00000000E+00  0.00000000E+00  0.00000000E+00
  0.00000000E+00  0.00000000E+00  0.00000000E+00
  0.00000000E+00  0.00000000E+00  0.00000000E+00
  0.00000000E+00  0.00000000E+00  0.00000000E+00
  0.00000000E+00  0.00000000E+00  0.00000000E+00
  0.00000000E+00  0.00000000E+00  0.00000000E+00
  0.00000000E+00  0.00000000E+00  0.00000000E+00
  0.00000000E+00  0.00000000E+00  0.00000000E+00
  0.00000000E+00  0.00000000E+00  0.00000000E+00
  0.00000000E+00  0.00000000E+00  0.00000000E+00
  0.00000000E+00  0.00000000E+00  0.00000000E+00
  0.00000000E+00  0.00000000E+00  0.00000000E+00
  0.00000000E+00  0.00000000E+00  0.00000000E+00
  0.00000000E+00  0.00000000E+00  0.00000000E+00
  0.00000000E+00  0.00000000E+00  0.00000000E+00
  0.00000000E+00  0.00000000E+00  0.00000000E+00
  0.00000000E+00  0.00000000E+00  0.00000000E+00
  0.00000000E+00  0.00000000E+00  0.00000000E+00
