 &CONTROL
   calculation = 'scf'
   outdir      = './out/'
   prefix      = 'LAC'
   pseudo_dir  = '/home/cgurwell/projects/rrg-ravh011/cgurwell/pseudo/'
   tprnfor     = .true.
   tstress     = .true.
   verbosity   = 'high'
 /

 &SYSTEM
   ecutrho     = 600
   ecutwfc     = 60
   ibrav       = 0
   nat         = 24
   nosym       = .false.
   ntyp        = 3
   occupations = 'fixed'
 /

 &ELECTRONS
   mixing_beta = 0.4
 /

ATOMIC_SPECIES 
    Li  6.941      Li.pbe-tm-gipaw-dc.UPF
    Al  26.981538  Al.pbe-tm-gipaw-dc.UPF
    Cl  35.453     Cl.pbe-tm-gipaw.UPF

CELL_PARAMETERS angstrom
    -0.000000000000000   -6.503000000000000   -0.000000000000000
    -6.992386083600000    0.000000000000000    0.403178444800000
     0.000000000000000    0.000000000000000  -12.996000000000000

ATOMIC_POSITIONS crystal
  Li       0.485000000000   0.842300000000   0.135400000000
  Li       0.985000000000   0.157700000000   0.364600000000
  Li       0.515000000000   0.157700000000   0.864600000000
  Li       0.015000000000   0.842300000000   0.635400000000
  Al       0.821700000000   0.294100000000   0.600970000000
  Al       0.321700000000   0.705900000000   0.899030000000
  Al       0.178300000000   0.705900000000   0.399030000000
  Al       0.678300000000   0.294100000000   0.100970000000
  Cl       0.683200000000   0.306200000000   0.453330000000
  Cl       0.183200000000   0.693800000000   0.046670000000
  Cl       0.316800000000   0.693800000000   0.546670000000
  Cl       0.816800000000   0.306200000000   0.953330000000
  Cl       0.128100000000   0.191400000000   0.571410000000
  Cl       0.628100000000   0.808600000000   0.928590000000
  Cl       0.871900000000   0.808600000000   0.428590000000
  Cl       0.371900000000   0.191400000000   0.071410000000
  Cl       0.681200000000   0.074500000000   0.686140000000
  Cl       0.181200000000   0.925500000000   0.813860000000
  Cl       0.318800000000   0.925500000000   0.313860000000
  Cl       0.818800000000   0.074500000000   0.186140000000
  Cl       0.814000000000   0.560300000000   0.687050000000
  Cl       0.314000000000   0.439700000000   0.812950000000
  Cl       0.186000000000   0.439700000000   0.312950000000
  Cl       0.686000000000   0.560300000000   0.187050000000

K_POINTS automatic
  5   5   5   0   0   0 



